
  32    4
  10   10   10   10

   0   0   0   0   0   4 2 3 4 6 
   9   1   1   0   1   3 9 7 5 
   4   4   0   1   5   2 7 5 
   5   5   4   0   2   3 13 9 8 
  10   0   3   2   4   3 13 10 8 
   5   3   3   0   2   2 10 8 
   5   9   4   0   3   3 13 12 10 
   7   4   8   0   5   2 12 11 
   3   6   1   0   4   2 18 10 
   3   2   4   6   0   3 19 15 14 
  10   3   0   6   2   2 15 14 
   6   2   0   3   5   4 20 19 18 15 
   6   4   1   0   3   4 20 18 16 15 
   5   5   0   1   7   3 20 17 16 
   8   4   0   3   6   3 26 23 21 
   2   0   7   3   3   3 30 22 21 
   4   6   1   5   0   3 26 23 21 
   1   0   5   4   3   3 31 23 22 
   9   1   6   0   2   4 31 30 27 22 
  10   5   4   5   0   5 31 30 26 25 24 
   1   2   2   0   4   4 31 27 25 24 
   6   6   0   3   5   3 26 25 24 
   4   0   4   3   6   3 30 29 27 
   2   0   3   7   5   1 29 
   2   6   5   0   3   1 28 
   9   0   3   3   5   1 28 
   9   0   5   6   3   1 28 
   4   3   6   4   0   1 32
   8   2   9   0   5   1 32
   9   0   2   7   8   1 32
   4   5   5   0   3   1 32
   0   0   0   0   0   0 
